6 40 4 10
6 2 8 18 7 15 18 10 15 15 1 7 8 17 17 17 19 14 20 8 5 12 1 16 4 11 11 14 20 19 8 9 5 1 19 12 12 16 16 11 
14.13 9.57 2.18 10.39 0.78 4.2 1.74 15.63 1.73 9.32 3.44 8.38 9.18 6.76 5.46 1.13 14.45 3.55 10.06 2.23 9.15 1.8 5.55 12.79 12.43 7.09 1.08 10.93 7.85 0.04 14.93 6.61 10.77 3.78 6.33 6.59 14.82 0.13 13.02 6.15 
4.83 14.55 12.41 10.36 8.17 15.36 3.35 3.37 1.99 0.97 15.09 3.67 12.43 14.59 2.01 9.71 8.15 4.31 3.01 6.01 14.96 15.46 10.98 8.85 8.92 8.15 4.91 3 14.77 2.04 1.52 3.93 10.92 13.92 12.41 6.47 15.38 5.76 8.94 9.08 
10.65 12.92 8.51 3.26 6.03 0.06 0.46 6.49 3.4 9.82 14.94 11.02 15.05 12.96 4.43 15.09 6.94 3.26 4.68 12.82 11.76 13.43 6.68 12.34 14.51 10.9 15.01 4.62 10.97 13.99 7.38 1.85 15.18 8.15 11.72 4.83 7.38 5.8 11.23 1.31 
9 7.7 7.98 8.01 7.8 8.08 7.35 5.16 6.34 4.42 6.73 0.36 6.43 7.58 3.53 15.04 8.67 8.65 10.26 4.77 2.17 7.2 0.56 15.37 4.53 3.24 15.82 12.84 8.3 0.39 0.4 12.82 14.63 1.77 14.38 9.17 11.19 1.85 4.73 10.21 
8 8 8 8 8 8 8 8 8 8 8 8 8 8 8 8 8 8 8 8 8 8 8 8 8 8 8 8 8 8 8 8 8 8 8 8 8 8 8 8 
11.55 10 7.22 0.14 14.8 4.9 13.9 4.57 2.6 4.87 6.55 2.75 10.79 7.1 5.16 9.15 12.3 9.08 10.97 13.81 8.04 1.76 13.43 4.19 10.26 2.85 12.21 4.78 4.51 4.32 14.24 11.27 3.72 15.32 8.4 6.16 11.43 12.1 15.67 1.06 
1 1 1 1 1 1 1 1 1 1 1 1 1 1 1 1 1 1 1 1 1 1 1 1 1 1 1 1 1 1 1 1 1 1 1 1 1 1 1 1 
1 1 1 1 1 1 1 1 1 1 1 1 1 1 1 1 1 1 1 1 1 1 1 1 1 1 1 1 1 1 1 1 1 1 1 1 1 1 1 1 
1 1 1 1 1 1 1 1 1 1 1 1 1 1 1 1 1 1 1 1 1 1 1 1 1 1 1 1 1 1 1 1 1 1 1 1 1 1 1 1 
1 1 1 1 1 1 1 1 1 1 1 1 1 1 1 1 1 1 1 1 1 1 1 1 1 1 1 1 1 1 1 1 1 1 1 1 1 1 1 1 
1 1 1 1 1 1 1 1 1 1 1 1 1 1 1 1 1 1 1 1 1 1 1 1 1 1 1 1 1 1 1 1 1 1 1 1 1 1 1 1 
1 1 1 1 1 1 1 1 1 1 1 1 1 1 1 1 1 1 1 1 1 1 1 1 1 1 1 1 1 1 1 1 1 1 1 1 1 1 1 1 
0.01 0.01 0.01 0.01 0.01 0.01 0.01 0.01 0.01 0.01 0.01 0.01 0.01 0.01 0.01 0.01 0.01 0.01 0.01 0.01 0.01 0.01 0.01 0.01 0.01 0.01 0.01 0.01 0.01 0.01 0.01 0.01 0.01 0.01 0.01 0.01 0.01 0.01 0.01 0.01 
0.02 0.02 0.02 0.02 0.02 0.02 0.02 0.02 0.02 0.02 0.02 0.02 0.02 0.02 0.02 0.02 0.02 0.02 0.02 0.02 0.02 0.02 0.02 0.02 0.02 0.02 0.02 0.02 0.02 0.02 0.02 0.02 0.02 0.02 0.02 0.02 0.02 0.02 0.02 0.02 
0.03 0.03 0.03 0.03 0.03 0.03 0.03 0.03 0.03 0.03 0.03 0.03 0.03 0.03 0.03 0.03 0.03 0.03 0.03 0.03 0.03 0.03 0.03 0.03 0.03 0.03 0.03 0.03 0.03 0.03 0.03 0.03 0.03 0.03 0.03 0.03 0.03 0.03 0.03 0.03 
0.04 0.04 0.04 0.04 0.04 0.04 0.04 0.04 0.04 0.04 0.04 0.04 0.04 0.04 0.04 0.04 0.04 0.04 0.04 0.04 0.04 0.04 0.04 0.04 0.04 0.04 0.04 0.04 0.04 0.04 0.04 0.04 0.04 0.04 0.04 0.04 0.04 0.04 0.04 0.04 
0.05 0.05 0.05 0.05 0.05 0.05 0.05 0.05 0.05 0.05 0.05 0.05 0.05 0.05 0.05 0.05 0.05 0.05 0.05 0.05 0.05 0.05 0.05 0.05 0.05 0.05 0.05 0.05 0.05 0.05 0.05 0.05 0.05 0.05 0.05 0.05 0.05 0.05 0.05 0.05 
1 1 1 1 1 1 1 1 1 1 1 1 1 1 1 1 1 1 1 1 1 1 1 1 1 1 1 1 1 1 1 1 1 1 1 1 1 1 1 1 
